100
1000
494
485
482
475
475
460
458
458
454
454
445
445
442
436
435
431
424
424
422
413
412
411
409
408
405
403
400
398
392
392
380
380
379
378
375
370
370
366
360
353
348
343
343
343
342
340
338
334
333
329
328
326
314
312
309
297
297
294
293
290
287
285
280
275
274
274
272
267
263
263
258
253
252
248
243
236
235
235
233
230
229
229
228
227
226
225
211
209
204
200
196
190
189
188
186
178
177
172
170
169
